c Source: TUDataset MUTAG, graph #134
c Original: n=22, m=25
c Augmented: +10 edges, n=25 -> m=35, circuit_rank=11
c Augmented to satisfy Eulerian condition (no parallel edges)
p sp 25
e 13 14
e 8 9
e 4 5
e 9 10
e 7 16
e 20 22
e 5 6
e 14 15
e 3 4
e 10 11
e 1 2
e 6 7
e 15 16
e 17 19
e 3 8
e 12 17
e 20 21
e 2 3
e 5 20
e 1 10
e 11 12
e 7 8
e 17 18
e 9 14
e 12 13
e 3 23
e 8 23
e 5 24
e 20 24
e 7 9
e 10 14
e 12 25
e 17 25
e 18 19
e 21 22
